62990
0 0 0 0 1 0 1 0 0 0 1 0 0 1 1 0 0 1 1 0 0 0 0 1 1 0 0 0 1 1 
18 28 23 24 10 6 13 14 13 18 4 13 29 13 18 6 18 29 6 24 13 17 4 17 6 13 24 28 29 17 4 13 10 6 14 29 29 4 24 18 24 4 28 4 28 6 23 23 28 29 24 18 24 28 17 6 24 17 6 24 29 18 28 13 24 18 28 4 4 28 17 4 6 24 23 28 17 28 13 23 23 10 29 13 29 14 17 23 17 18 13 4 23 6 18 4 17 10 13 24 13 28 23 18 4 23 4 24 10 18 17 29 17 6 17 29 24 6 17 10 10 10 28 29 6 24 28 23 14 10 18 23 23 23 23 29 10 24 10 18 4 10 6 6 4 23 29 10 6 18 18 23 10 23 4 23 18 6 6 29 23 6 4 24 17 18 10 4 28 24 13 17 24 13 13 4 24 13 29 17 24 29 10 14 18 17 13 17 17 17 18 24 10 29 28 6 17 24 29 14 
